(set-info :smt-lib-version 2.6)
(set-logic QF_S)
(set-info :source |
Generated by: Hung-En Wang, Tzung-Lin Tsai, Chun-Han Lin, Fang Yu, and Jie-Hong R. Jiang
Generated on: 2019-02-28
Generator: Stranger
Application: Security analysis of string manipulating web applications
Target solver: CVC4, Norn, Z3-str2
Publication:
Hung-En Wang, Tzung-Lin Tsai, Chun-Han Lin, Fang Yu, Jie-Hong R. Jiang:
String Analysis via Automata Manipulation with Logic Circuit Representation. CAV (1) 2016: 241-260.
|)
(set-info :license "https://creativecommons.org/licenses/by/4.0/")
(set-info :category "industrial")
(set-info :status unknown)

(declare-fun sigmaStar_0 () String)
(declare-fun sigmaStar_1 () String)
(declare-fun sigmaStar_2 () String)
(declare-fun sigmaStar_3 () String)
(declare-fun literal_6 () String)
(declare-fun x_10 () String)
(declare-fun literal_17 () String)
(declare-fun x_18 () String)
(declare-fun epsilon () String)
(declare-fun literal_14 () String)
(declare-fun x_19 () String)
(declare-fun literal_20 () String)
(declare-fun x_21 () String)
(assert (= literal_6 "\u{23}\u{73}\u{69}\u{64}\u{3d}"))
(assert (= x_10 (str.++ sigmaStar_1 literal_6)))
(assert (= literal_17 "\u{20}\u{20}\u{3c}\u{66}\u{72}\u{61}\u{6d}\u{65}\u{20}\u{73}\u{72}\u{63}\u{3d}\u{5c}\u{22}\u{61}\u{73}\u{73}\u{65}\u{73}\u{73}\u{2e}\u{70}\u{68}\u{70}\u{3f}\u{69}\u{64}\u{3d}\u{69}\u{64}\u{26}\u{61}\u{6d}\u{70}\u{3b}\u{73}\u{69}\u{64}\u{3d}\u{73}\u{69}\u{64}\u{26}\u{61}\u{6d}\u{70}\u{3b}\u{66}\u{72}\u{61}\u{6d}\u{65}\u{73}\u{65}\u{74}\u{3d}\u{74}\u{6f}\u{70}\u{26}\u{61}\u{6d}\u{70}\u{3b}\u{72}\u{65}\u{64}\u{69}\u{72}\u{65}\u{63}\u{74}\u{3d}"))
(assert (= epsilon ""))
(assert (= literal_14 "\u{72}\u{65}\u{64}\u{69}\u{72}\u{65}\u{63}\u{74}"))
(assert (or (= x_18 epsilon) (= x_18 literal_14)))
(assert (= x_19 (str.++ literal_17 x_18)))
(assert (= literal_20 "\u{5c}\u{22}\u{20}\u{62}\u{6f}\u{72}\u{64}\u{65}\u{72}\u{3d}\u{5c}\u{22}\u{31}\u{30}\u{5c}\u{22}\u{20}\u{2f}\u{3e}"))
(assert (= x_21 (str.++ x_19 literal_20)))
(assert (str.in_re x_21 (re.++ (re.* re.allchar) (re.++ (str.to_re "\u{5c}\u{3c}\u{53}\u{43}\u{52}\u{49}\u{50}\u{54}") (re.* re.allchar)))))
(check-sat)
(exit)
